220 300 61 80 77 52 61 52 72 76 86 97 80 53 89 51 90 58 78 82 65 93 85 50 75 74 72 91 77 81 95 76 68 55 80 96 82 65 72 54 91 57 75 71 85 64 97 99 97 99 55 87 91 90 87 90 88 58 80 64 64 100 64 82 79 95 77 61 59 73 90 50 55 64 96 64 52 66 63 74 65 68 60 80 57 97 95 95 80 74 84 94 98 98 100 77 92 51 88 76 74 77 50 79 65 70 94 68 60 81 92 75 99 76 80 80 97 74 99 76 72 82 94 70 54 94 97 96 95 58 96 68 59 96 72 74 90 90 66 50 70 57 100 68 57 79 72 54 77 70 80 100 52 99 94 56 92 64 76 86 72 97 53 81 66 100 54 56 89 71 81 83 52 80 50 85 84 72 89 60 67 93 84 94 91 77 74 82 91 74 92 87 70 70 67 87 69 97 67 83 92 98 65 68 77 66 52 60 62 91 96 79 58 79 72 99 81 70 55 96 95 97 